(set-option :print-success false)
(set-logic QF_UF)
(declare-sort x1 0)
(declare-sort x78 0)
(declare-fun x112 () x78)
(declare-fun x131 () x78)
(declare-fun x142 () x78)
(declare-fun x26 (x78 x78) x78)
(declare-fun x81 () x78)
(declare-fun x93 (x78 x78) x78)
(declare-fun x24 () x78)
(assert (let ((x66 (x93 x112 x112)) (x149 (x93 x131 x112)) (x42 (x93 x131 x142)) (x23 (x93 x81 x112)) (x82 (x93 x81 x81)) (x143 (x93 x24 x131)) (x48 (x93 x142 x81)) (x59 (x93 x112 x131)) (x47 (x93 x142 x131)) (x119 (x93 x24 x81)) (x74 (x93 x142 x24)) (x12 (x93 x112 x24)) (x145 (x93 x24 x142)) (x45 (x93 x142 x142)) (x114 (x93 x24 x24)) (x31 (x93 x131 x24)) (x75 (x93 x81 x142)) (x64 (x93 x112 x142)) (x20 (x93 x131 x131)) (x90 (x93 x142 x112)) (x155 (x93 x81 x131)) (x88 (x93 x112 x81)) (x132 (x93 x24 x112)) (x5 (x93 x81 x24)) (x83 (x93 x131 x81))) (let ((x102 (not (= x81 x48))) (x29 (not (= x81 x59))) (x34 (not (= x119 x24))) (x53 (not (= x112 x64))) (x15 (not (= x88 x112))) (x152 (not (= x142 x145))) (x141 (not (= x88 x81))) (x103 (not (= x81 x143))) (x72 (not (= x42 x81))) (x3 (not (= x155 x131))) (x28 (not (= x66 x112))) (x36 (not (= x142 x114))) (x92 (not (= x145 x131))) (x60 (not (= x112 x5))) (x69 (not (= x145 x81))) (x136 (not (= x47 x112))) (x138 (not (= x112 x83))) (x56 (not (= x74 x81))) (x157 (not (= x64 x142))) (x100 (not (= x112 x82))) (x55 (not (= x142 x5))) (x49 (not (= x142 x42))) (x97 (not (= x75 x131))) (x140 (not (= x66 x131))) (x50 (not (= x143 x24))) (x57 (not (= x149 x81))) (x62 (not (= x112 x20))) (x68 (not (= x48 x142))) (x123 (not (= x45 x142))) (x101 (not (= x42 x131))) (x63 (not (= x82 x24))) (x11 (not (= x64 x81))) (x108 (not (= x82 x81))) (x133 (not (= x81 x119))) (x70 (not (= x149 x142))) (x159 (not (= x142 x12))) (x137 (not (= x142 x74))) (x158 (not (= x112 x42))) (x17 (not (= x82 x142))) (x151 (not (= x66 x24))) (x128 (not (= x88 x142))) (x22 (not (= x82 x131))) (x99 (not (= x81 x155))) (x27 (not (= x155 x142))) (x134 (not (= x131 x132))) (x76 (not (= x83 x24))) (x98 (not (= x45 x81))) (x14 (not (= x131 x12))) (x33 (not (= x132 x112))) (x39 (not (= x114 x112))) (x96 (not (= x142 x23))) (x122 (not (= x31 x131))) (x4 (not (= x5 x24))) (x86 (not (= x64 x131))) (x79 (not (= x81 x114))) (x38 (not (= x31 x142))) (x148 (not (= x75 x24))) (x77 (not (= x142 x20))) (x18 (not (= x149 x112))) (x21 (not (= x142 x90))) (x129 (not (= x112 x119))) (x105 (not (= x112 x59))) (x156 (not (= x131 x90))) (x52 (not (= x24 x88))) (x19 (not (= x142 x119))) (x73 (not (= x90 x112))) (x85 (not (= x81 x132))) (x71 (not (= x155 x24))) (x139 (not (= x81 x20))) (x58 (not (= x142 x66))) (x32 (not (= x24 x12))) (x111 (not (= x131 x45))) (x95 (not (= x24 x64))) (x9 (not (= x90 x24))) (x7 (not (= x149 x24))) (x2 (not (= x24 x114))) (x107 (not (= x24 x23))) (x146 (not (= x131 x114))) (x51 (not (= x75 x81))) (x118 (not (= x131 x143))) (x116 (not (= x83 x131))) (x89 (not (= x131 x47))) (x87 (not (= x132 x24))) (x104 (not (= x143 x142))) (x121 (not (= x24 x48))) (x154 (not (= x119 x131))) (x115 (not (= x112 x74))) (x8 (not (= x59 x131))) (x30 (not (= x74 x24))) (x35 (not (= x112 x45))) (x6 (not (= x131 x23))) (x67 (not (= x112 x12))) (x80 (not (= x81 x5))) (x135 (not (= x75 x142))) (x13 (not (= x142 x132))) (x109 (not (= x75 x112))) (x130 (not (= x155 x112))) (x113 (not (= x20 x131))) (x40 (not (= x24 x145))) (x94 (not (= x47 x81))) (x106 (not (= x143 x112))) (x117 (not (= x142 x47))) (x43 (not (= x48 x112))) (x125 (not (= x142 x83))) (x84 (not (= x42 x24))) (x153 (not (= x5 x131))) (x37 (not (= x81 x83))) (x124 (not (= x81 x31))) (x44 (not (= x131 x149))) (x41 (not (= x24 x45))) (x46 (not (= x112 x145))) (x144 (not (= x59 x24))) (x10 (not (= x81 x12))) (x120 (not (= x112 x23))) (x16 (not (= x59 x142))) (x25 (not (= x81 x23))) (x54 (not (= x74 x131))) (x126 (not (= x112 x31))) (x110 (not (= x81 x90))) (x147 (not (= x81 x66))) (x61 (not (= x24 x20))) (x91 (not (= x31 x24))) (x150 (not (= x131 x48))) (x65 (not (= x47 x24))) (x127 (not (= x131 x88)))) (or (and (and (and (or x50 x91) (and (or x40 x30) (and (or x34 x4) (or x32 x87)))) (or x2 x2)) (and (and (and (and (or x65 x84) (and (and (or x121 x148) (or x9 x95)) (or x41 x41))) (or x40 x30)) (and (and (or x34 x4) (and (and (and (or x63 x63) (or x107 x52)) (or x121 x148)) (or x76 x71))) (and (or x32 x87) (and (or x144 x7) (and (and (or x52 x107) (or x151 x151)) (or x95 x9)))))) (and (or x50 x91) (and (or x61 x61) (and (and (or x144 x7) (or x71 x76)) (or x84 x65)))))) (or (or (or (and (and (and (or x124 x103) (and (and (or x72 x94) (and (or x57 x29) (or x99 x37))) (or x139 x139))) (and (and (and (or x80 x133) (and (and (and (or x108 x108) (or x141 x25)) (or x102 x51)) (or x37 x99))) (and (and (and (or x110 x11) (and (or x147 x147) (or x25 x141))) (or x29 x57)) (or x85 x10))) (and (and (or x72 x94) (and (and (or x110 x11) (or x102 x51)) (or x98 x98))) (or x56 x69)))) (and (or x79 x79) (and (and (or x56 x69) (and (or x133 x80) (or x85 x10))) (or x124 x103)))) (and (and (and (and (and (and (or x138 x130) (and (and (or x100 x100) (or x15 x120)) (or x109 x43))) (or x60 x129)) (and (and (and (and (or x28 x28) (or x120 x15)) (or x73 x53)) (or x105 x18)) (or x33 x67))) (and (or x46 x115) (and (and (or x35 x35) (and (or x43 x109) (or x73 x53))) (or x158 x136)))) (and (or x126 x106) (and (and (or x158 x136) (and (or x105 x18) (or x138 x130))) (or x62 x62)))) (and (or x39 x39) (and (and (or x46 x115) (and (or x33 x67) (or x129 x60))) (or x126 x106))))) (and (and (and (or x104 x38) (and (or x137 x152) (and (or x55 x19) (or x13 x159)))) (or x36 x36)) (and (and (and (or x137 x152) (and (and (and (or x157 x21) (or x68 x135)) (or x123 x123)) (or x117 x49))) (and (and (or x19 x55) (and (and (or x135 x68) (and (or x128 x96) (or x17 x17))) (or x27 x125))) (and (or x159 x13) (and (or x16 x70) (and (and (or x58 x58) (or x128 x96)) (or x157 x21)))))) (and (or x104 x38) (and (and (and (or x27 x125) (or x16 x70)) (or x49 x117)) (or x77 x77)))))) (and (and (and (or x118 x122) (and (or x113 x113) (and (or x89 x101) (and (or x8 x44) (or x3 x116))))) (and (and (and (and (or x44 x8) (and (and (or x127 x6) (or x140 x140)) (or x86 x156))) (or x14 x134)) (and (and (or x116 x3) (and (and (or x6 x127) (or x22 x22)) (or x150 x97))) (or x154 x153))) (and (or x92 x54) (and (or x101 x89) (and (or x111 x111) (and (or x97 x150) (or x156 x86))))))) (and (and (and (or x54 x92) (and (or x14 x134) (or x153 x154))) (or x122 x118)) (or x146 x146))))))))
(assert (and (= x24 (x93 x81 x81)) (and (= x131 (x93 x142 x24)) (and (= x142 (x93 x24 x81)) (= x81 (x93 x112 x112))))))
(assert (and (and (and (not (= x142 (x93 x142 x142))) (and (not (= (x93 x81 x81) x81)) (not (= x112 (x93 x112 x112))))) (not (= (x93 x131 x131) x131))) (not (= x24 (x93 x24 x24)))))
(assert (let ((x147 (x93 x131 x131)) (x102 (x93 x24 x24)) (x25 (x93 x142 x142)) (x141 (x93 x112 x112)) (x108 (x93 x81 x81))) (or (and (not (= x24 x102)) (and (not (= x147 x24)) (and (and (not (= x108 x24)) (not (= x24 x141))) (not (= x24 x25))))) (or (or (and (not (= x142 x102)) (and (and (and (not (= x142 x108)) (not (= x141 x142))) (not (= x142 x25))) (not (= x142 x147)))) (or (and (not (= x102 x112)) (and (and (not (= x25 x112)) (and (not (= x141 x112)) (not (= x112 x108)))) (not (= x147 x112)))) (and (and (and (not (= x81 x25)) (and (not (= x81 x108)) (not (= x141 x81)))) (not (= x147 x81))) (not (= x81 x102))))) (and (not (= x131 x102)) (and (not (= x147 x131)) (and (not (= x131 x25)) (and (not (= x108 x131)) (not (= x131 x141))))))))))
(assert (let ((x141 (x93 x112 x81)) (x133 (x93 x112 x131)) (x147 (x93 x131 x81)) (x72 (x93 x131 x142)) (x98 (x93 x131 x112)) (x11 (x93 x142 x112)) (x29 (x93 x142 x142)) (x57 (x93 x112 x142)) (x25 (x93 x142 x81)) (x99 (x93 x81 x142)) (x110 (x93 x112 x112)) (x56 (x93 x112 x24)) (x85 (x93 x131 x131)) (x103 (x93 x142 x24)) (x108 (x93 x81 x81)) (x102 (x93 x24 x81)) (x139 (x93 x81 x131)) (x124 (x93 x131 x24)) (x37 (x93 x24 x112)) (x51 (x93 x81 x112)) (x79 (x93 x24 x24)) (x80 (x93 x142 x131)) (x94 (x93 x24 x142)) (x69 (x93 x81 x24)) (x10 (x93 x24 x131))) (and (and (and (not (= x79 x10)) (and (and (and (not (= x37 x79)) (and (and (not (= x94 x37)) (and (and (and (not (= x37 x102)) (not (= x102 x94))) (not (= x102 x10))) (not (= x79 x102)))) (not (= x10 x37)))) (not (= x10 x94))) (not (= x79 x94)))) (and (and (and (and (not (= x103 x29)) (and (and (not (= x103 x11)) (and (not (= x11 x80)) (and (and (not (= x25 x103)) (and (not (= x25 x80)) (and (not (= x11 x25)) (not (= x25 x29))))) (not (= x11 x29))))) (not (= x29 x80)))) (not (= x80 x103))) (and (and (and (and (and (and (not (= x133 x110)) (and (and (not (= x141 x56)) (and (not (= x141 x133)) (and (not (= x57 x141)) (not (= x141 x110))))) (not (= x57 x110)))) (not (= x110 x56))) (not (= x57 x133))) (not (= x56 x57))) (not (= x133 x56))) (and (and (not (= x99 x69)) (and (not (= x99 x139)) (and (not (= x51 x69)) (and (not (= x51 x139)) (and (and (and (not (= x139 x108)) (and (not (= x99 x108)) (not (= x108 x51)))) (not (= x69 x108))) (not (= x51 x99))))))) (not (= x139 x69))))) (and (and (not (= x124 x72)) (and (and (and (not (= x85 x98)) (and (and (not (= x147 x124)) (and (not (= x147 x85)) (and (not (= x147 x72)) (not (= x147 x98))))) (not (= x98 x72)))) (not (= x124 x98))) (not (= x85 x72)))) (not (= x85 x124))))) (and (and (and (not (= x103 x79)) (and (not (= x124 x103)) (and (not (= x79 x56)) (and (not (= x124 x56)) (and (and (and (and (not (= x69 x56)) (not (= x69 x103))) (not (= x69 x124))) (not (= x79 x69))) (not (= x103 x56))))))) (not (= x124 x79))) (and (and (and (and (not (= x94 x29)) (and (not (= x29 x72)) (and (and (and (and (not (= x94 x99)) (and (not (= x99 x72)) (and (not (= x29 x99)) (not (= x57 x99))))) (not (= x57 x29))) (not (= x57 x72))) (not (= x57 x94))))) (not (= x94 x72))) (and (and (and (and (not (= x11 x98)) (and (and (not (= x110 x98)) (and (and (and (and (not (= x51 x110)) (not (= x11 x51))) (not (= x51 x98))) (not (= x37 x51))) (not (= x11 x110)))) (not (= x110 x37)))) (not (= x11 x37))) (not (= x98 x37))) (and (not (= x147 x102)) (and (not (= x102 x25)) (and (and (not (= x102 x141)) (and (not (= x147 x141)) (and (not (= x141 x25)) (and (not (= x102 x108)) (and (not (= x108 x147)) (and (not (= x25 x108)) (not (= x108 x141)))))))) (not (= x25 x147))))))) (and (not (= x10 x85)) (and (and (not (= x80 x85)) (and (and (and (and (and (and (not (= x80 x139)) (not (= x139 x133))) (not (= x85 x139))) (not (= x139 x10))) (not (= x80 x133))) (not (= x85 x133))) (not (= x10 x133)))) (not (= x10 x80)))))))))
(assert (not (and (and (= (x93 x24 x131) x131) (and (= (x93 x24 x142) x24) (and (and (= x142 (x93 x24 x81)) (and (and (and (and (= x24 (x93 x131 x112)) (and (= x131 (x93 x131 x81)) (and (= (x93 x142 x24) x131) (and (= (x93 x142 x131) x24) (and (and (and (and (= x24 (x93 x112 x24)) (and (= (x93 x112 x131) x142) (and (and (= x81 (x93 x112 x112)) (and (= (x93 x112 x81) x112) (and (= (x93 x81 x24) x112) (and (and (= x142 (x93 x81 x142)) (and (= (x93 x81 x81) x24) (= x131 (x93 x81 x112)))) (= (x93 x81 x131) x81))))) (= (x93 x112 x142) x131)))) (= (x93 x142 x81) x81)) (= x142 (x93 x142 x112))) (= (x93 x142 x142) x112)))))) (= (x93 x131 x142) x81)) (= (x93 x131 x131) x112)) (= x142 (x93 x131 x24)))) (= (x93 x24 x112) x112)))) (= x81 (x93 x24 x24)))))
(assert (let ((x141 (= x112 (x93 x112 x81))) (x72 (= x131 (x93 x131 x142))) (x139 (= (x93 x131 x131) x131)) (x103 (= x24 (x93 x24 x131))) (x51 (= (x93 x81 x142) x81)) (x99 (= (x93 x81 x131) x81)) (x133 (= (x93 x24 x81) x24)) (x102 (= x142 (x93 x142 x81))) (x69 (= (x93 x24 x142) x24)) (x79 (= x24 (x93 x24 x24))) (x57 (= x131 (x93 x131 x112))) (x11 (= (x93 x112 x142) x112)) (x98 (= (x93 x142 x142) x142)) (x56 (= (x93 x142 x24) x142)) (x85 (= x24 (x93 x24 x112))) (x10 (= x112 (x93 x112 x24))) (x94 (= (x93 x142 x131) x142)) (x80 (= x81 (x93 x81 x24))) (x37 (= x131 (x93 x131 x81))) (x25 (= (x93 x81 x112) x81)) (x147 (= x112 (x93 x112 x112))) (x29 (= (x93 x112 x131) x112)) (x124 (= x131 (x93 x131 x24))) (x110 (= (x93 x142 x112) x142)) (x108 (= (x93 x81 x81) x81))) (or (or (or (and x124 x103) (or (and x139 x139) (or (or (and x29 x57) (and x37 x99)) (and x94 x72)))) (or (or (and x56 x69) (or (and x94 x72) (or (and x98 x98) (or (and x110 x11) (and x102 x51))))) (or (or (or (or (and x51 x102) (or (and x108 x108) (and x141 x25))) (and x37 x99)) (and x80 x133)) (or (or (or (or (and x147 x147) (and x141 x25)) (and x110 x11)) (and x57 x29)) (and x10 x85))))) (or (or (and x124 x103) (or (or (and x133 x80) (and x10 x85)) (and x69 x56))) (and x79 x79)))))
(assert (and (not (= x131 x24)) (and (not (= x142 x24)) (and (and (and (not (= x131 x112)) (and (and (and (not (= x81 x131)) (and (not (= x81 x142)) (not (= x81 x112)))) (not (= x81 x24))) (not (= x112 x142)))) (not (= x24 x112))) (not (= x131 x142))))))
(assert (or (or (and (not (= (x93 x131 (x93 x131 x24)) x24)) (and (and (not (= x142 (x93 x131 (x93 x131 x142)))) (and (not (= x81 (x93 x131 (x93 x131 x81)))) (not (= x112 (x93 x131 (x93 x131 x112)))))) (not (= (x93 x131 (x93 x131 x131)) x131)))) (or (or (and (not (= (x93 x112 (x93 x112 x24)) x24)) (and (not (= x131 (x93 x112 (x93 x112 x131)))) (and (not (= x142 (x93 x112 (x93 x112 x142)))) (and (not (= x81 (x93 x112 (x93 x112 x81)))) (not (= x112 (x93 x112 (x93 x112 x112)))))))) (and (not (= (x93 x81 (x93 x81 x24)) x24)) (and (not (= x131 (x93 x81 (x93 x81 x131)))) (and (and (not (= x81 (x93 x81 (x93 x81 x81)))) (not (= (x93 x81 (x93 x81 x112)) x112))) (not (= (x93 x81 (x93 x81 x142)) x142)))))) (and (not (= x24 (x93 x142 (x93 x142 x24)))) (and (not (= (x93 x142 (x93 x142 x131)) x131)) (and (not (= x142 (x93 x142 (x93 x142 x142)))) (and (not (= x112 (x93 x142 (x93 x142 x112)))) (not (= (x93 x142 (x93 x142 x81)) x81)))))))) (and (not (= x24 (x93 x24 (x93 x24 x24)))) (and (and (and (not (= (x93 x24 (x93 x24 x112)) x112)) (not (= (x93 x24 (x93 x24 x81)) x81))) (not (= (x93 x24 (x93 x24 x142)) x142))) (not (= (x93 x24 (x93 x24 x131)) x131))))))
(assert (let ((x69 (x93 x24 x142)) (x51 (x93 x81 x142)) (x124 (x93 x131 x24)) (x25 (x93 x81 x112)) (x29 (x93 x112 x131)) (x99 (x93 x81 x131)) (x37 (x93 x131 x81)) (x141 (x93 x112 x81)) (x56 (x93 x142 x24)) (x133 (x93 x24 x81)) (x80 (x93 x81 x24)) (x110 (x93 x142 x112)) (x103 (x93 x24 x131)) (x139 (not (= (x93 x131 x131) x131))) (x108 (not (= (x93 x81 x81) x81))) (x10 (x93 x112 x24)) (x102 (x93 x142 x81)) (x85 (x93 x24 x112)) (x79 (not (= x24 (x93 x24 x24)))) (x98 (not (= x142 (x93 x142 x142)))) (x94 (x93 x142 x131)) (x72 (x93 x131 x142)) (x147 (not (= (x93 x112 x112) x112))) (x11 (x93 x112 x142)) (x57 (x93 x131 x112))) (and (and (and (and (and (and (or (not (= x112 x57)) (not (= x29 x112))) (and (or (not (= x110 x112)) (not (= x112 x11))) (and (or (not (= x141 x112)) (not (= x112 x25))) (or x147 x147)))) (or (not (= x112 x85)) (not (= x112 x10)))) (and (and (or (not (= x81 x99)) (not (= x37 x81))) (and (and (or x108 x108) (or (not (= x141 x81)) (not (= x25 x81)))) (or (not (= x102 x81)) (not (= x81 x51))))) (or (not (= x81 x133)) (not (= x80 x81))))) (and (and (and (and (or (not (= x11 x142)) (not (= x142 x110))) (or (not (= x102 x142)) (not (= x51 x142)))) (or x98 x98)) (or (not (= x142 x72)) (not (= x94 x142)))) (or (not (= x142 x69)) (not (= x56 x142))))) (and (and (or x139 x139) (and (and (or (not (= x99 x131)) (not (= x37 x131))) (or (not (= x57 x131)) (not (= x131 x29)))) (or (not (= x94 x131)) (not (= x131 x72))))) (or (not (= x131 x103)) (not (= x131 x124))))) (and (and (or (not (= x103 x24)) (not (= x24 x124))) (and (or (not (= x24 x56)) (not (= x24 x69))) (and (or (not (= x24 x80)) (not (= x24 x133))) (or (not (= x85 x24)) (not (= x24 x10)))))) (or x79 x79)))))
(assert (and (and (not (= (x93 (x93 x131 x131) x131) x131)) (and (and (not (= x112 (x93 (x93 x112 x112) x112))) (not (= x81 (x93 (x93 x81 x81) x81)))) (not (= x142 (x93 (x93 x142 x142) x142))))) (not (= x24 (x93 (x93 x24 x24) x24)))))
(assert (let ((x147 (x93 x131 x131)) (x102 (x93 x24 x24)) (x108 (x93 x81 x81)) (x141 (x93 x112 x112)) (x25 (x93 x142 x142))) (or (= (x93 x102 x102) x24) (or (or (or (= (x93 x141 x141) x112) (= x81 (x93 x108 x108))) (= (x93 x25 x25) x142)) (= (x93 x147 x147) x131)))))
(assert (let ((x57 (x93 x142 x112)) (x80 (x93 x131 x142)) (x11 (x93 x112 x142)) (x133 (x93 x131 x112)) (x10 (x93 x131 x24)) (x102 (x93 x81 x24)) (x37 (x93 x112 x24)) (x29 (x93 x142 x142)) (x69 (x93 x24 x81)) (x99 (x93 x142 x81)) (x147 (x93 x81 x131)) (x72 (x93 x142 x131)) (x85 (x93 x131 x131)) (x56 (x93 x24 x112)) (x139 (x93 x131 x81)) (x124 (x93 x24 x131)) (x94 (x93 x142 x24)) (x108 (x93 x81 x81)) (x51 (x93 x112 x81)) (x98 (x93 x112 x131)) (x103 (x93 x24 x142)) (x25 (x93 x81 x142)) (x110 (x93 x112 x112)) (x141 (x93 x81 x112)) (x79 (x93 x24 x24))) (and (and (and (and (and (and (and (and (or (or (or (= x108 x142) (or (= x108 x112) (= x108 x81))) (= x131 x108)) (= x108 x24)) (or (= x141 x24) (or (= x131 x141) (or (= x141 x142) (or (= x141 x81) (= x112 x141)))))) (or (or (or (= x25 x142) (or (= x25 x112) (= x81 x25))) (= x131 x25)) (= x24 x25))) (or (or (or (= x142 x147) (or (= x147 x81) (= x147 x112))) (= x147 x131)) (= x147 x24))) (or (= x102 x24) (or (or (= x142 x102) (or (= x112 x102) (= x81 x102))) (= x102 x131)))) (and (or (= x37 x24) (or (= x131 x37) (or (or (= x37 x112) (= x37 x81)) (= x142 x37)))) (and (and (or (or (= x131 x11) (or (= x142 x11) (or (= x11 x112) (= x81 x11)))) (= x24 x11)) (and (or (= x24 x110) (or (= x131 x110) (or (= x142 x110) (or (= x110 x81) (= x110 x112))))) (or (= x51 x24) (or (= x51 x131) (or (= x51 x142) (or (= x51 x81) (= x112 x51))))))) (or (or (= x131 x98) (or (= x142 x98) (or (= x112 x98) (= x81 x98)))) (= x98 x24))))) (and (or (or (or (= x142 x94) (or (= x81 x94) (= x94 x112))) (= x94 x131)) (= x24 x94)) (and (or (= x72 x24) (or (= x131 x72) (or (= x72 x142) (or (= x112 x72) (= x81 x72))))) (and (or (or (= x131 x29) (or (or (= x29 x112) (= x81 x29)) (= x29 x142))) (= x29 x24)) (and (or (or (or (or (= x57 x112) (= x57 x81)) (= x142 x57)) (= x57 x131)) (= x24 x57)) (or (= x24 x99) (or (or (= x99 x142) (or (= x112 x99) (= x99 x81))) (= x131 x99)))))))) (and (and (and (and (or (or (= x131 x133) (or (= x142 x133) (or (= x133 x81) (= x112 x133)))) (= x133 x24)) (or (or (= x131 x139) (or (= x139 x142) (or (= x139 x81) (= x139 x112)))) (= x24 x139))) (or (= x80 x24) (or (= x80 x131) (or (or (= x80 x112) (= x81 x80)) (= x142 x80))))) (or (= x85 x24) (or (or (or (= x85 x112) (= x85 x81)) (= x142 x85)) (= x85 x131)))) (or (= x10 x24) (or (or (= x142 x10) (or (= x10 x81) (= x112 x10))) (= x131 x10))))) (and (and (and (or (or (or (= x142 x103) (or (= x112 x103) (= x81 x103))) (= x131 x103)) (= x24 x103)) (and (or (or (= x131 x69) (or (= x69 x142) (or (= x69 x81) (= x69 x112)))) (= x24 x69)) (or (or (= x131 x56) (or (or (= x56 x81) (= x112 x56)) (= x142 x56))) (= x24 x56)))) (or (= x124 x24) (or (= x131 x124) (or (= x124 x142) (or (= x112 x124) (= x81 x124)))))) (or (= x79 x24) (or (or (or (= x112 x79) (= x79 x81)) (= x79 x142)) (= x131 x79)))))))
(assert (let ((x56 (x93 x112 x24)) (x100 (x93 x24 x112)) (x157 (x93 x24 x131)) (x153 (x93 x24 x24)) (x102 (x93 x81 x131)) (x51 (x93 x81 x24)) (x12 (x93 x142 x142)) (x98 (x93 x142 x81)) (x25 (x93 x81 x112)) (x10 (x93 x112 x142)) (x141 (x93 x81 x81)) (x69 (x93 x112 x131)) (x147 (x93 x81 x142)) (x37 (x93 x131 x81)) (x128 (x93 x131 x131)) (x96 (x93 x131 x24)) (x45 (x93 x131 x142)) (x35 (x93 x24 x142)) (x43 (x93 x142 x24)) (x11 (x93 x112 x81)) (x99 (x93 x24 x81)) (x82 (x93 x131 x112)) (x85 (x93 x112 x112)) (x132 (x93 x142 x131)) (x79 (x93 x142 x112))) (let ((x83 (= x131 x85)) (x6 (= x24 x132)) (x136 (= x131 x12)) (x119 (= x24 x25)) (x139 (= x25 x81)) (x34 (= x99 x24)) (x151 (= x56 x142)) (x64 (= x81 x10)) (x47 (= x98 x142)) (x33 (= x82 x81)) (x144 (= x56 x131)) (x118 (= x112 x153)) (x44 (= x81 x96)) (x121 (= x43 x142)) (x114 (= x37 x112)) (x158 (= x131 x10)) (x152 (= x131 x132)) (x76 (= x131 x35)) (x140 (= x24 x128)) (x148 (= x142 x96)) (x21 (= x112 x128)) (x53 (= x112 x12)) (x127 (= x24 x69)) (x84 (= x131 x43)) (x73 (= x10 x112)) (x135 (= x132 x112)) (x154 (= x112 x157)) (x14 (= x112 x56)) (x16 (= x69 x142)) (x124 (= x85 x112)) (x46 (= x102 x81)) (x3 (= x43 x81)) (x75 (= x142 x85)) (x159 (= x69 x131)) (x19 (= x82 x131)) (x7 (= x51 x131)) (x62 (= x79 x24)) (x67 (= x81 x45)) (x28 (= x147 x81)) (x113 (= x112 x35)) (x106 (= x132 x81)) (x54 (= x96 x112)) (x108 (= x81 x141)) (x89 (= x100 x112)) (x91 (= x96 x24)) (x134 (= x51 x112)) (x8 (= x81 x153)) (x120 (= x81 x98)) (x18 (= x131 x79)) (x4 (= x100 x24)) (x143 (= x10 x24)) (x92 (= x112 x43)) (x74 (= x142 x147)) (x129 (= x12 x24)) (x27 (= x142 x45)) (x117 (= x128 x142)) (x137 (= x131 x128)) (x94 (= x11 x81)) (x13 (= x131 x102)) (x49 (= x132 x142)) (x133 (= x85 x81)) (x156 (= x35 x81)) (x145 (= x10 x142)) (x101 (= x99 x112)) (x66 (= x79 x81)) (x88 (= x25 x142)) (x126 (= x81 x128)) (x125 (= x82 x142)) (x57 (= x141 x142)) (x30 (= x56 x24)) (x31 (= x147 x24)) (x61 (= x131 x153)) (x29 (= x131 x141)) (x70 (= x102 x142)) (x150 (= x81 x99)) (x77 (= x37 x131)) (x146 (= x142 x100)) (x86 (= x157 x81)) (x103 (= x112 x25)) (x115 (= x81 x69)) (x39 (= x82 x112)) (x55 (= x131 x45)) (x23 (= x142 x11)) (x123 (= x142 x37)) (x41 (= x100 x131)) (x36 (= x45 x24)) (x72 (= x24 x141)) (x97 (= x81 x100)) (x104 (= x24 x37)) (x52 (= x157 x142)) (x50 (= x24 x43)) (x95 (= x131 x99)) (x149 (= x112 x79)) (x107 (= x142 x51)) (x59 (= x98 x112)) (x90 (= x12 x81)) (x40 (= x51 x24)) (x109 (= x147 x112)) (x130 (= x98 x131)) (x110 (= x112 x141)) (x116 (= x56 x81)) (x105 (= x147 x131)) (x5 (= x24 x11)) (x111 (= x81 x51)) (x138 (= x12 x142)) (x38 (= x24 x82)) (x17 (= x112 x45)) (x58 (= x102 x112)) (x71 (= x157 x131)) (x2 (= x24 x153)) (x32 (= x24 x157)) (x9 (= x153 x142)) (x48 (= x131 x11)) (x122 (= x142 x99)) (x63 (= x142 x35)) (x65 (= x131 x96)) (x80 (= x112 x11)) (x42 (= x79 x142)) (x15 (= x85 x24)) (x87 (= x24 x35)) (x20 (= x98 x24)) (x60 (= x81 x37)) (x22 (= x102 x24)) (x68 (= x69 x112)) (x155 (= x25 x131))) (and (and (and (and (and (and (and (or (or (or x130 (or x48 x29)) x77) x95) (or (or (or x105 (or x155 x29)) x13) x7)) (and (and (or (or x70 (or (or x88 x57) x74)) x107) (or (or x123 (or (or x57 x23) x47)) x122)) (and (and (or x134 (or x58 (or (or x110 x103) x109))) (or (or (or (or x110 x80) x59) x114) x101)) (and (or (or x60 (or x120 (or x94 x108))) x150) (or (or x46 (or (or x139 x108) x28)) x111))))) (and (or (or (or x31 (or x72 x119)) x22) x40) (or (or x104 (or (or x5 x72) x20)) x34))) (and (and (or (or x127 (or x143 (or x15 x5))) x30) (or (or (or (or x119 x15) x62) x38) x4)) (and (and (and (or (or x125 (or (or x75 x88) x42)) x146) (or (or (or (or x75 x23) x145) x16) x151)) (and (and (or (or (or x66 (or x139 x133)) x33) x97) (or (or (or x64 (or x94 x133)) x115) x116)) (and (or x14 (or x68 (or x73 (or x124 x80)))) (or x89 (or (or x149 (or x124 x103)) x39))))) (and (or x144 (or x159 (or (or x48 x83) x158))) (or x41 (or (or (or x83 x155) x18) x19)))))) (and (and (or (or (or x129 (or x143 x31)) x36) x87) (or (or x6 (or (or x62 x20) x129)) x50)) (and (and (and (and (or (or x17 (or (or x109 x73) x53)) x113) (or (or (or x53 (or x59 x149)) x135) x92)) (and (or x156 (or (or (or x28 x64) x90) x67)) (or (or (or (or x66 x120) x90) x106) x3))) (and (or x121 (or (or (or x42 x47) x138) x49)) (or (or x27 (or (or x74 x145) x138)) x63))) (and (or (or (or (or x105 x158) x136) x55) x76) (or (or (or x136 (or x130 x18)) x152) x84))))) (and (and (or (or (or x36 (or x38 x104)) x140) x91) (or x32 (or x140 (or (or x22 x127) x6)))) (and (and (and (or x148 (or x117 (or x27 (or x125 x123)))) (or (or (or x49 (or x70 x16)) x117) x52)) (and (and (or x54 (or x21 (or (or x114 x39) x17))) (or (or x21 (or x135 (or x68 x58))) x154)) (and (or x44 (or x126 (or x67 (or x60 x33)))) (or x86 (or (or x106 (or x46 x115)) x126))))) (and (or (or (or x55 (or x19 x77)) x137) x65) (or x71 (or x137 (or x152 (or x13 x159)))))))) (and (and (or x2 (or (or (or x30 x40) x50) x91)) (or x2 (or x32 (or (or x34 x4) x87)))) (and (and (or (or (or (or x95 x41) x76) x71) x61) (or x61 (or x65 (or (or x7 x144) x84)))) (and (and (or x9 (or (or (or x151 x107) x121) x148)) (or (or (or (or x146 x122) x63) x52) x9)) (and (and (or x8 (or (or (or x111 x116) x3) x44)) (or x8 (or (or x156 (or x97 x150)) x86))) (and (or (or (or (or x14 x134) x92) x54) x118) (or (or x154 (or x113 (or x101 x89))) x118))))))))))
(check-sat)
(exit)
